(set-info :smt-lib-version 2.6)
(set-logic QF_NIA)
(set-info :source |
Generated by: Cristina Borralleras, Daniel Larraz, Albert Oliveras, Enric Rodriguez-Carbonell, Albert Rubio
Generated on: 2017-04-27
Generator: VeryMax
Application: Termination proving
Target solver: barcelogic
|)
(set-info :license "https://creativecommons.org/licenses/by/4.0/")
(set-info :category "industrial")
(set-info :status sat)
(declare-fun Nl2main_a1 () Int)
(declare-fun Nl2main_b1 () Int)
(declare-fun Nl2main_am1 () Int)
(declare-fun Nl2main_bm1 () Int)
(declare-fun Nl2main_a2 () Int)
(declare-fun Nl2main_b2 () Int)
(declare-fun Nl2main_am2 () Int)
(declare-fun Nl2main_bm2 () Int)
(declare-fun Nl2main_a3 () Int)
(declare-fun Nl2main_b3 () Int)
(declare-fun Nl2main_am3 () Int)
(declare-fun Nl2main_bm3 () Int)
(declare-fun lam0n0 () Int)
(declare-fun lam0n1 () Int)
(declare-fun lam0n2 () Int)
(declare-fun lam0n3 () Int)
(declare-fun lam0n4 () Int)
(declare-fun lam0n5 () Int)
(declare-fun lam0n6 () Int)
(declare-fun lam0n7 () Int)
(declare-fun Nl2CT1 () Int)
(declare-fun Nl2CT2 () Int)
(declare-fun Nl2CT3 () Int)
(declare-fun lam1n0 () Int)
(declare-fun lam1n1 () Int)
(declare-fun lam1n2 () Int)
(declare-fun lam1n3 () Int)
(declare-fun lam1n4 () Int)
(declare-fun lam1n5 () Int)
(declare-fun lam1n6 () Int)
(declare-fun lam1n7 () Int)
(declare-fun lam2n0 () Int)
(declare-fun lam2n1 () Int)
(declare-fun lam2n2 () Int)
(declare-fun lam2n3 () Int)
(declare-fun lam2n4 () Int)
(declare-fun lam2n5 () Int)
(declare-fun lam2n6 () Int)
(declare-fun lam2n7 () Int)
(declare-fun lam3n0 () Int)
(declare-fun lam3n1 () Int)
(declare-fun lam3n2 () Int)
(declare-fun lam3n3 () Int)
(declare-fun lam3n4 () Int)
(declare-fun lam3n5 () Int)
(declare-fun lam3n6 () Int)
(declare-fun lam3n7 () Int)
(declare-fun lam4n0 () Int)
(declare-fun lam4n1 () Int)
(declare-fun lam4n2 () Int)
(declare-fun lam4n3 () Int)
(declare-fun lam4n4 () Int)
(declare-fun lam5n0 () Int)
(declare-fun lam5n1 () Int)
(declare-fun lam5n2 () Int)
(declare-fun lam5n3 () Int)
(declare-fun lam5n4 () Int)
(declare-fun lam6n0 () Int)
(declare-fun lam6n1 () Int)
(declare-fun lam6n2 () Int)
(declare-fun lam6n3 () Int)
(declare-fun lam6n4 () Int)
(declare-fun lam7n0 () Int)
(declare-fun lam7n1 () Int)
(declare-fun lam7n2 () Int)
(declare-fun lam7n3 () Int)
(declare-fun lam8n0 () Int)
(declare-fun lam8n1 () Int)
(declare-fun lam8n2 () Int)
(declare-fun lam8n3 () Int)
(declare-fun lam9n0 () Int)
(declare-fun lam9n1 () Int)
(declare-fun lam9n2 () Int)
(declare-fun lam9n3 () Int)
(declare-fun lam10n0 () Int)
(declare-fun lam10n1 () Int)
(declare-fun lam10n2 () Int)
(declare-fun lam11n0 () Int)
(declare-fun lam11n1 () Int)
(declare-fun lam11n2 () Int)
(declare-fun lam12n0 () Int)
(declare-fun lam12n1 () Int)
(declare-fun lam12n2 () Int)
(declare-fun main_a () Int)
(declare-fun main_b () Int)
(declare-fun main_am () Int)
(declare-fun main_bm () Int)
(declare-fun lam16n0 () Int)
(declare-fun lam16n1 () Int)
(declare-fun lam16n2 () Int)
(declare-fun lam16n3 () Int)
(declare-fun lam16n4 () Int)
(declare-fun lam16n5 () Int)
(declare-fun lam16n6 () Int)
(declare-fun lam16n7 () Int)
(declare-fun RFN1_CT () Int)
(declare-fun RFN1_main_bm () Int)
(declare-fun RFN1_main_a () Int)
(declare-fun RFN1_main_b () Int)
(declare-fun RFN1_main_am () Int)
(declare-fun lam14n0 () Int)
(declare-fun lam14n1 () Int)
(declare-fun lam14n2 () Int)
(declare-fun lam14n3 () Int)
(declare-fun lam14n4 () Int)
(declare-fun lam14n5 () Int)
(declare-fun lam14n6 () Int)
(declare-fun lam14n7 () Int)
(declare-fun lam15n0 () Int)
(declare-fun lam15n1 () Int)
(declare-fun lam15n2 () Int)
(declare-fun lam15n3 () Int)
(declare-fun lam15n4 () Int)
(declare-fun lam15n5 () Int)
(declare-fun lam15n6 () Int)
(declare-fun lam15n7 () Int)
(declare-fun lam13n0 () Int)
(declare-fun lam13n1 () Int)
(declare-fun lam13n2 () Int)
(declare-fun lam13n3 () Int)
(declare-fun lam13n4 () Int)
(declare-fun lam13n5 () Int)
(declare-fun lam13n6 () Int)
(declare-fun lam13n7 () Int)
(assert ( and ( <= ( - 1 ) Nl2main_a1 ) ( <= Nl2main_a1 1 ) ( <= ( - 1 ) Nl2main_b1 ) ( <= Nl2main_b1 1 ) ( <= ( - 1 ) Nl2main_am1 ) ( <= Nl2main_am1 1 ) ( <= ( - 1 ) Nl2main_bm1 ) ( <= Nl2main_bm1 1 ) ( <= ( - 1 ) Nl2main_a2 ) ( <= Nl2main_a2 1 ) ( <= ( - 1 ) Nl2main_b2 ) ( <= Nl2main_b2 1 ) ( <= ( - 1 ) Nl2main_am2 ) ( <= Nl2main_am2 1 ) ( <= ( - 1 ) Nl2main_bm2 ) ( <= Nl2main_bm2 1 ) ( <= ( - 1 ) Nl2main_a3 ) ( <= Nl2main_a3 1 ) ( <= ( - 1 ) Nl2main_b3 ) ( <= Nl2main_b3 1 ) ( <= ( - 1 ) Nl2main_am3 ) ( <= Nl2main_am3 1 ) ( <= ( - 1 ) Nl2main_bm3 ) ( <= Nl2main_bm3 1 ) ))
(assert ( or ( and ( >= lam0n0 0 ) ( >= lam0n1 0 ) ( >= lam0n2 0 ) ( >= lam0n3 0 ) ( >= lam0n4 0 ) ( >= lam0n5 0 ) ( >= lam0n6 0 ) ( >= lam0n7 0 ) ( > ( + ( * 1 lam0n3 ) ( * 1 lam0n4 ) ( * Nl2CT1 lam0n5 ) ( * Nl2CT2 lam0n6 ) ( * Nl2CT3 lam0n7 ) ( - 1 ) ) 0 ) ( = ( + ( * 1 lam0n0 ) ( * 1 lam0n1 ) ( * ( - 1 ) lam0n2 ) ( * 1 lam0n3 ) ( * Nl2main_a1 lam0n5 ) ( * Nl2main_a2 lam0n6 ) ( * Nl2main_a3 lam0n7 ) ) 0 ) ( = ( + ( * ( - 1 ) lam0n1 ) ( * 1 lam0n2 ) ( * 1 lam0n3 ) ( * Nl2main_b1 lam0n5 ) ( * Nl2main_b2 lam0n6 ) ( * Nl2main_b3 lam0n7 ) ) 0 ) ( = ( + ( * ( - 1 ) lam0n1 ) ( * ( - 1 ) lam0n3 ) ( * ( - 1 ) lam0n4 ) ( * Nl2main_am1 lam0n5 ) ( * Nl2main_am2 lam0n6 ) ( * Nl2main_am3 lam0n7 ) ) 0 ) ( = ( + ( * 1 lam0n1 ) ( * 1 lam0n3 ) ( * 1 lam0n4 ) ( * Nl2main_bm1 lam0n5 ) ( * Nl2main_bm2 lam0n6 ) ( * Nl2main_bm3 lam0n7 ) ) 0 ) ) ( and ( >= lam1n0 0 ) ( >= lam1n1 0 ) ( >= lam1n2 0 ) ( >= lam1n3 0 ) ( >= lam1n4 0 ) ( >= lam1n5 0 ) ( >= lam1n6 0 ) ( >= lam1n7 0 ) ( > ( + ( * 1 lam1n3 ) ( * 1 lam1n4 ) ( * Nl2CT1 lam1n5 ) ( * Nl2CT2 lam1n6 ) ( * Nl2CT3 lam1n7 ) ( - 1 ( + Nl2CT1 ( * Nl2main_bm1 0 ) ) ) ) 0 ) ( = ( + ( * 1 lam1n0 ) ( * 1 lam1n1 ) ( * ( - 1 ) lam1n2 ) ( * 1 lam1n3 ) ( * Nl2main_a1 lam1n5 ) ( * Nl2main_a2 lam1n6 ) ( * Nl2main_a3 lam1n7 ) ( - ( + 0 Nl2main_a1 ) ) ) 0 ) ( = ( + ( * ( - 1 ) lam1n1 ) ( * 1 lam1n2 ) ( * 1 lam1n3 ) ( * Nl2main_b1 lam1n5 ) ( * Nl2main_b2 lam1n6 ) ( * Nl2main_b3 lam1n7 ) ( - ( + ( + 0 Nl2main_b1 ) ( * Nl2main_bm1 1 ) ) ) ) 0 ) ( = ( + ( * ( - 1 ) lam1n1 ) ( * ( - 1 ) lam1n3 ) ( * ( - 1 ) lam1n4 ) ( * Nl2main_am1 lam1n5 ) ( * Nl2main_am2 lam1n6 ) ( * Nl2main_am3 lam1n7 ) ( - ( + 0 Nl2main_am1 ) ) ) 0 ) ( = ( + ( * 1 lam1n1 ) ( * 1 lam1n3 ) ( * 1 lam1n4 ) ( * Nl2main_bm1 lam1n5 ) ( * Nl2main_bm2 lam1n6 ) ( * Nl2main_bm3 lam1n7 ) ( - ( + 0 ( * Nl2main_bm1 1 ) ) ) ) 0 ) ) ))
(assert ( or ( and ( >= lam0n0 0 ) ( >= lam0n1 0 ) ( >= lam0n2 0 ) ( >= lam0n3 0 ) ( >= lam0n4 0 ) ( >= lam0n5 0 ) ( >= lam0n6 0 ) ( >= lam0n7 0 ) ( > ( + ( * 1 lam0n3 ) ( * 1 lam0n4 ) ( * Nl2CT1 lam0n5 ) ( * Nl2CT2 lam0n6 ) ( * Nl2CT3 lam0n7 ) ( - 1 ) ) 0 ) ( = ( + ( * 1 lam0n0 ) ( * 1 lam0n1 ) ( * ( - 1 ) lam0n2 ) ( * 1 lam0n3 ) ( * Nl2main_a1 lam0n5 ) ( * Nl2main_a2 lam0n6 ) ( * Nl2main_a3 lam0n7 ) ) 0 ) ( = ( + ( * ( - 1 ) lam0n1 ) ( * 1 lam0n2 ) ( * 1 lam0n3 ) ( * Nl2main_b1 lam0n5 ) ( * Nl2main_b2 lam0n6 ) ( * Nl2main_b3 lam0n7 ) ) 0 ) ( = ( + ( * ( - 1 ) lam0n1 ) ( * ( - 1 ) lam0n3 ) ( * ( - 1 ) lam0n4 ) ( * Nl2main_am1 lam0n5 ) ( * Nl2main_am2 lam0n6 ) ( * Nl2main_am3 lam0n7 ) ) 0 ) ( = ( + ( * 1 lam0n1 ) ( * 1 lam0n3 ) ( * 1 lam0n4 ) ( * Nl2main_bm1 lam0n5 ) ( * Nl2main_bm2 lam0n6 ) ( * Nl2main_bm3 lam0n7 ) ) 0 ) ) ( and ( >= lam2n0 0 ) ( >= lam2n1 0 ) ( >= lam2n2 0 ) ( >= lam2n3 0 ) ( >= lam2n4 0 ) ( >= lam2n5 0 ) ( >= lam2n6 0 ) ( >= lam2n7 0 ) ( > ( + ( * 1 lam2n3 ) ( * 1 lam2n4 ) ( * Nl2CT1 lam2n5 ) ( * Nl2CT2 lam2n6 ) ( * Nl2CT3 lam2n7 ) ( - 1 ( + Nl2CT2 ( * Nl2main_bm2 0 ) ) ) ) 0 ) ( = ( + ( * 1 lam2n0 ) ( * 1 lam2n1 ) ( * ( - 1 ) lam2n2 ) ( * 1 lam2n3 ) ( * Nl2main_a1 lam2n5 ) ( * Nl2main_a2 lam2n6 ) ( * Nl2main_a3 lam2n7 ) ( - ( + 0 Nl2main_a2 ) ) ) 0 ) ( = ( + ( * ( - 1 ) lam2n1 ) ( * 1 lam2n2 ) ( * 1 lam2n3 ) ( * Nl2main_b1 lam2n5 ) ( * Nl2main_b2 lam2n6 ) ( * Nl2main_b3 lam2n7 ) ( - ( + ( + 0 Nl2main_b2 ) ( * Nl2main_bm2 1 ) ) ) ) 0 ) ( = ( + ( * ( - 1 ) lam2n1 ) ( * ( - 1 ) lam2n3 ) ( * ( - 1 ) lam2n4 ) ( * Nl2main_am1 lam2n5 ) ( * Nl2main_am2 lam2n6 ) ( * Nl2main_am3 lam2n7 ) ( - ( + 0 Nl2main_am2 ) ) ) 0 ) ( = ( + ( * 1 lam2n1 ) ( * 1 lam2n3 ) ( * 1 lam2n4 ) ( * Nl2main_bm1 lam2n5 ) ( * Nl2main_bm2 lam2n6 ) ( * Nl2main_bm3 lam2n7 ) ( - ( + 0 ( * Nl2main_bm2 1 ) ) ) ) 0 ) ) ))
(assert ( or ( and ( >= lam0n0 0 ) ( >= lam0n1 0 ) ( >= lam0n2 0 ) ( >= lam0n3 0 ) ( >= lam0n4 0 ) ( >= lam0n5 0 ) ( >= lam0n6 0 ) ( >= lam0n7 0 ) ( > ( + ( * 1 lam0n3 ) ( * 1 lam0n4 ) ( * Nl2CT1 lam0n5 ) ( * Nl2CT2 lam0n6 ) ( * Nl2CT3 lam0n7 ) ( - 1 ) ) 0 ) ( = ( + ( * 1 lam0n0 ) ( * 1 lam0n1 ) ( * ( - 1 ) lam0n2 ) ( * 1 lam0n3 ) ( * Nl2main_a1 lam0n5 ) ( * Nl2main_a2 lam0n6 ) ( * Nl2main_a3 lam0n7 ) ) 0 ) ( = ( + ( * ( - 1 ) lam0n1 ) ( * 1 lam0n2 ) ( * 1 lam0n3 ) ( * Nl2main_b1 lam0n5 ) ( * Nl2main_b2 lam0n6 ) ( * Nl2main_b3 lam0n7 ) ) 0 ) ( = ( + ( * ( - 1 ) lam0n1 ) ( * ( - 1 ) lam0n3 ) ( * ( - 1 ) lam0n4 ) ( * Nl2main_am1 lam0n5 ) ( * Nl2main_am2 lam0n6 ) ( * Nl2main_am3 lam0n7 ) ) 0 ) ( = ( + ( * 1 lam0n1 ) ( * 1 lam0n3 ) ( * 1 lam0n4 ) ( * Nl2main_bm1 lam0n5 ) ( * Nl2main_bm2 lam0n6 ) ( * Nl2main_bm3 lam0n7 ) ) 0 ) ) ( and ( >= lam3n0 0 ) ( >= lam3n1 0 ) ( >= lam3n2 0 ) ( >= lam3n3 0 ) ( >= lam3n4 0 ) ( >= lam3n5 0 ) ( >= lam3n6 0 ) ( >= lam3n7 0 ) ( > ( + ( * 1 lam3n3 ) ( * 1 lam3n4 ) ( * Nl2CT1 lam3n5 ) ( * Nl2CT2 lam3n6 ) ( * Nl2CT3 lam3n7 ) ( - 1 ( + Nl2CT3 ( * Nl2main_bm3 0 ) ) ) ) 0 ) ( = ( + ( * 1 lam3n0 ) ( * 1 lam3n1 ) ( * ( - 1 ) lam3n2 ) ( * 1 lam3n3 ) ( * Nl2main_a1 lam3n5 ) ( * Nl2main_a2 lam3n6 ) ( * Nl2main_a3 lam3n7 ) ( - ( + 0 Nl2main_a3 ) ) ) 0 ) ( = ( + ( * ( - 1 ) lam3n1 ) ( * 1 lam3n2 ) ( * 1 lam3n3 ) ( * Nl2main_b1 lam3n5 ) ( * Nl2main_b2 lam3n6 ) ( * Nl2main_b3 lam3n7 ) ( - ( + ( + 0 Nl2main_b3 ) ( * Nl2main_bm3 1 ) ) ) ) 0 ) ( = ( + ( * ( - 1 ) lam3n1 ) ( * ( - 1 ) lam3n3 ) ( * ( - 1 ) lam3n4 ) ( * Nl2main_am1 lam3n5 ) ( * Nl2main_am2 lam3n6 ) ( * Nl2main_am3 lam3n7 ) ( - ( + 0 Nl2main_am3 ) ) ) 0 ) ( = ( + ( * 1 lam3n1 ) ( * 1 lam3n3 ) ( * 1 lam3n4 ) ( * Nl2main_bm1 lam3n5 ) ( * Nl2main_bm2 lam3n6 ) ( * Nl2main_bm3 lam3n7 ) ( - ( + 0 ( * Nl2main_bm3 1 ) ) ) ) 0 ) ) ))
(assert ( or ( and ( <= main_a 0 ) ( <= ( + ( * ( - 1 ) main_a ) main_b ) 0 ) ( not ( <= ( + ( * ( - 1 ) main_a ) ( * ( - 1 ) main_b ) main_am ( * ( - 1 ) main_bm ) ) 0 ) ) ( = ( + main_a ( * ( - 1 ) main_am ) ) 0 ) ( = ( + main_b ( * ( - 1 ) main_bm ) ) 0 ) ( <= ( + Nl2CT1 ( * ( + 0 Nl2main_a1 ) main_a ) ( * ( + 0 Nl2main_b1 ) main_b ) ( * ( + 0 Nl2main_am1 ) main_am ) ( * ( + 0 Nl2main_bm1 ) main_bm ) ) 0 ) ( <= ( + Nl2CT2 ( * ( + 0 Nl2main_a2 ) main_a ) ( * ( + 0 Nl2main_b2 ) main_b ) ( * ( + 0 Nl2main_am2 ) main_am ) ( * ( + 0 Nl2main_bm2 ) main_bm ) ) 0 ) ( <= ( + Nl2CT3 ( * ( + 0 Nl2main_a3 ) main_a ) ( * ( + 0 Nl2main_b3 ) main_b ) ( * ( + 0 Nl2main_am3 ) main_am ) ( * ( + 0 Nl2main_bm3 ) main_bm ) ) 0 ) ( <= main_a 0 ) ( <= ( + ( * ( - 1 ) main_a ) main_b ) 0 ) ( <= ( + main_a ( * ( - 1 ) main_b ) ( * ( - 1 ) main_am ) main_bm ) 0 ) ) ( and ( <= main_a 0 ) ( not ( <= ( + ( * ( - 1 ) main_a ) main_b ) 0 ) ) ( = ( + main_a ( * ( - 1 ) main_am ) ) 0 ) ( = ( + main_b ( * ( - 1 ) main_bm ) ) 0 ) ( <= ( + Nl2CT1 ( * ( + 0 Nl2main_a1 ) main_a ) ( * ( + 0 Nl2main_b1 ) main_b ) ( * ( + 0 Nl2main_am1 ) main_am ) ( * ( + 0 Nl2main_bm1 ) main_bm ) ) 0 ) ( <= ( + Nl2CT2 ( * ( + 0 Nl2main_a2 ) main_a ) ( * ( + 0 Nl2main_b2 ) main_b ) ( * ( + 0 Nl2main_am2 ) main_am ) ( * ( + 0 Nl2main_bm2 ) main_bm ) ) 0 ) ( <= ( + Nl2CT3 ( * ( + 0 Nl2main_a3 ) main_a ) ( * ( + 0 Nl2main_b3 ) main_b ) ( * ( + 0 Nl2main_am3 ) main_am ) ( * ( + 0 Nl2main_bm3 ) main_bm ) ) 0 ) ( <= main_a 0 ) ( <= ( + ( * ( - 1 ) main_a ) main_b ) 0 ) ( <= ( + main_a ( * ( - 1 ) main_b ) ( * ( - 1 ) main_am ) main_bm ) 0 ) ) ( and ( not ( <= main_a 0 ) ) ( = ( + main_a ( * ( - 1 ) main_am ) ) 0 ) ( = ( + main_b ( * ( - 1 ) main_bm ) ) 0 ) ( <= ( + Nl2CT1 ( * ( + 0 Nl2main_a1 ) main_a ) ( * ( + 0 Nl2main_b1 ) main_b ) ( * ( + 0 Nl2main_am1 ) main_am ) ( * ( + 0 Nl2main_bm1 ) main_bm ) ) 0 ) ( <= ( + Nl2CT2 ( * ( + 0 Nl2main_a2 ) main_a ) ( * ( + 0 Nl2main_b2 ) main_b ) ( * ( + 0 Nl2main_am2 ) main_am ) ( * ( + 0 Nl2main_bm2 ) main_bm ) ) 0 ) ( <= ( + Nl2CT3 ( * ( + 0 Nl2main_a3 ) main_a ) ( * ( + 0 Nl2main_b3 ) main_b ) ( * ( + 0 Nl2main_am3 ) main_am ) ( * ( + 0 Nl2main_bm3 ) main_bm ) ) 0 ) ( <= main_a 0 ) ( <= ( + ( * ( - 1 ) main_a ) main_b ) 0 ) ( <= ( + main_a ( * ( - 1 ) main_b ) ( * ( - 1 ) main_am ) main_bm ) 0 ) ) ))
(assert ( or ( and ( and ( >= lam16n0 0 ) ( >= lam16n1 0 ) ( >= lam16n2 0 ) ( >= lam16n3 0 ) ( >= lam16n4 0 ) ( >= lam16n5 0 ) ( >= lam16n6 0 ) ( >= lam16n7 0 ) ( > ( + ( * 1 lam16n3 ) ( * 1 lam16n4 ) ( * Nl2CT1 lam16n5 ) ( * Nl2CT2 lam16n6 ) ( * Nl2CT3 lam16n7 ) ( - 1 ( - ( + RFN1_CT ( * RFN1_main_bm 0 ) ) RFN1_CT ) ) ) 0 ) ( = ( + ( * 1 lam16n0 ) ( * 1 lam16n1 ) ( * ( - 1 ) lam16n2 ) ( * 1 lam16n3 ) ( * Nl2main_a1 lam16n5 ) ( * Nl2main_a2 lam16n6 ) ( * Nl2main_a3 lam16n7 ) ( - ( - ( + 0 RFN1_main_a ) RFN1_main_a ) ) ) 0 ) ( = ( + ( * ( - 1 ) lam16n1 ) ( * 1 lam16n2 ) ( * 1 lam16n3 ) ( * Nl2main_b1 lam16n5 ) ( * Nl2main_b2 lam16n6 ) ( * Nl2main_b3 lam16n7 ) ( - ( - ( + ( + 0 RFN1_main_b ) ( * RFN1_main_bm 1 ) ) RFN1_main_b ) ) ) 0 ) ( = ( + ( * ( - 1 ) lam16n1 ) ( * ( - 1 ) lam16n3 ) ( * ( - 1 ) lam16n4 ) ( * Nl2main_am1 lam16n5 ) ( * Nl2main_am2 lam16n6 ) ( * Nl2main_am3 lam16n7 ) ( - ( - ( + 0 RFN1_main_am ) RFN1_main_am ) ) ) 0 ) ( = ( + ( * 1 lam16n1 ) ( * 1 lam16n3 ) ( * 1 lam16n4 ) ( * Nl2main_bm1 lam16n5 ) ( * Nl2main_bm2 lam16n6 ) ( * Nl2main_bm3 lam16n7 ) ( - ( - ( + 0 ( * RFN1_main_bm 1 ) ) RFN1_main_bm ) ) ) 0 ) ) ( and ( and ( >= lam14n0 0 ) ( >= lam14n1 0 ) ( >= lam14n2 0 ) ( >= lam14n3 0 ) ( >= lam14n4 0 ) ( >= lam14n5 0 ) ( >= lam14n6 0 ) ( >= lam14n7 0 ) ( > ( + ( * 1 lam14n3 ) ( * 1 lam14n4 ) ( * Nl2CT1 lam14n5 ) ( * Nl2CT2 lam14n6 ) ( * Nl2CT3 lam14n7 ) ( - 1 ( - RFN1_CT ) ) ) 0 ) ( = ( + ( * 1 lam14n0 ) ( * 1 lam14n1 ) ( * ( - 1 ) lam14n2 ) ( * 1 lam14n3 ) ( * Nl2main_a1 lam14n5 ) ( * Nl2main_a2 lam14n6 ) ( * Nl2main_a3 lam14n7 ) ( - ( - RFN1_main_a ) ) ) 0 ) ( = ( + ( * ( - 1 ) lam14n1 ) ( * 1 lam14n2 ) ( * 1 lam14n3 ) ( * Nl2main_b1 lam14n5 ) ( * Nl2main_b2 lam14n6 ) ( * Nl2main_b3 lam14n7 ) ( - ( - RFN1_main_b ) ) ) 0 ) ( = ( + ( * ( - 1 ) lam14n1 ) ( * ( - 1 ) lam14n3 ) ( * ( - 1 ) lam14n4 ) ( * Nl2main_am1 lam14n5 ) ( * Nl2main_am2 lam14n6 ) ( * Nl2main_am3 lam14n7 ) ( - ( - RFN1_main_am ) ) ) 0 ) ( = ( + ( * 1 lam14n1 ) ( * 1 lam14n3 ) ( * 1 lam14n4 ) ( * Nl2main_bm1 lam14n5 ) ( * Nl2main_bm2 lam14n6 ) ( * Nl2main_bm3 lam14n7 ) ( - ( - RFN1_main_bm ) ) ) 0 ) ) ( and ( >= lam15n0 0 ) ( >= lam15n1 0 ) ( >= lam15n2 0 ) ( >= lam15n3 0 ) ( >= lam15n4 0 ) ( >= lam15n5 0 ) ( >= lam15n6 0 ) ( >= lam15n7 0 ) ( > ( + ( * 1 lam15n3 ) ( * 1 lam15n4 ) ( * Nl2CT1 lam15n5 ) ( * Nl2CT2 lam15n6 ) ( * Nl2CT3 lam15n7 ) ( - 1 ( + ( - ( + RFN1_CT ( * RFN1_main_bm 0 ) ) RFN1_CT ) 1 ) ) ) 0 ) ( = ( + ( * 1 lam15n0 ) ( * 1 lam15n1 ) ( * ( - 1 ) lam15n2 ) ( * 1 lam15n3 ) ( * Nl2main_a1 lam15n5 ) ( * Nl2main_a2 lam15n6 ) ( * Nl2main_a3 lam15n7 ) ( - ( - ( + 0 RFN1_main_a ) RFN1_main_a ) ) ) 0 ) ( = ( + ( * ( - 1 ) lam15n1 ) ( * 1 lam15n2 ) ( * 1 lam15n3 ) ( * Nl2main_b1 lam15n5 ) ( * Nl2main_b2 lam15n6 ) ( * Nl2main_b3 lam15n7 ) ( - ( - ( + ( + 0 RFN1_main_b ) ( * RFN1_main_bm 1 ) ) RFN1_main_b ) ) ) 0 ) ( = ( + ( * ( - 1 ) lam15n1 ) ( * ( - 1 ) lam15n3 ) ( * ( - 1 ) lam15n4 ) ( * Nl2main_am1 lam15n5 ) ( * Nl2main_am2 lam15n6 ) ( * Nl2main_am3 lam15n7 ) ( - ( - ( + 0 RFN1_main_am ) RFN1_main_am ) ) ) 0 ) ( = ( + ( * 1 lam15n1 ) ( * 1 lam15n3 ) ( * 1 lam15n4 ) ( * Nl2main_bm1 lam15n5 ) ( * Nl2main_bm2 lam15n6 ) ( * Nl2main_bm3 lam15n7 ) ( - ( - ( + 0 ( * RFN1_main_bm 1 ) ) RFN1_main_bm ) ) ) 0 ) ) ) ) ( and ( >= lam13n0 0 ) ( >= lam13n1 0 ) ( >= lam13n2 0 ) ( >= lam13n3 0 ) ( >= lam13n4 0 ) ( >= lam13n5 0 ) ( >= lam13n6 0 ) ( >= lam13n7 0 ) ( > ( + ( * 1 lam13n3 ) ( * 1 lam13n4 ) ( * Nl2CT1 lam13n5 ) ( * Nl2CT2 lam13n6 ) ( * Nl2CT3 lam13n7 ) ( - 1 ) ) 0 ) ( = ( + ( * 1 lam13n0 ) ( * 1 lam13n1 ) ( * ( - 1 ) lam13n2 ) ( * 1 lam13n3 ) ( * Nl2main_a1 lam13n5 ) ( * Nl2main_a2 lam13n6 ) ( * Nl2main_a3 lam13n7 ) ) 0 ) ( = ( + ( * ( - 1 ) lam13n1 ) ( * 1 lam13n2 ) ( * 1 lam13n3 ) ( * Nl2main_b1 lam13n5 ) ( * Nl2main_b2 lam13n6 ) ( * Nl2main_b3 lam13n7 ) ) 0 ) ( = ( + ( * ( - 1 ) lam13n1 ) ( * ( - 1 ) lam13n3 ) ( * ( - 1 ) lam13n4 ) ( * Nl2main_am1 lam13n5 ) ( * Nl2main_am2 lam13n6 ) ( * Nl2main_am3 lam13n7 ) ) 0 ) ( = ( + ( * 1 lam13n1 ) ( * 1 lam13n3 ) ( * 1 lam13n4 ) ( * Nl2main_bm1 lam13n5 ) ( * Nl2main_bm2 lam13n6 ) ( * Nl2main_bm3 lam13n7 ) ) 0 ) ) ))
(check-sat)
(exit)
